#######################
Slurm job id: 17497813_46
Running on machine: p16
Running cmd: /nfs/shared/static-builds/gurobi1003 SOFTMEMLIMIT=125 MIPFocus=0 Presolve=2 TimeLimit=500 seed=15 /nfs/models/miplib2010/k16x240.mps.bz2
#######################
Set parameter TimeLimit to value 500
Set parameter SoftMemLimit to value 125
Set parameter LogFile to value 1003-MIPFocus0-Presolve2-TimeLimit500-k16x240-5.log
Set parameter Presolve to value 2
Set parameter Seed to value 15
Using license file /opt/gurobi/gurobi.lic

Gurobi Optimizer version 10.0.3 build v10.0.3rc0 (linux64)
Copyright (c) 2023, Gurobi Optimization, LLC

Read MPS format model from file /nfs/models/miplib2010/k16x240.mps.bz2
Reading time = 0.00 seconds
k16x240: 256 rows, 480 columns, 960 nonzeros

CPU model: Intel(R) Xeon(R) E-2388G CPU @ 3.20GHz, instruction set [SSE2|AVX|AVX2|AVX512]
Thread count: 8 physical cores, 16 logical processors, using up to 16 threads

Optimize a model with 256 rows, 480 columns and 960 nonzeros
Model fingerprint: 0x4e80885f
Variable types: 240 continuous, 240 integer (240 binary)
Coefficient statistics:
  Matrix range     [1e+00, 1e+03]
  Objective range  [1e+00, 1e+03]
  Bounds range     [1e+00, 1e+03]
  RHS range        [4e+00, 4e+02]
Found heuristic solution: objective 16199.000000
Presolve time: 0.00s
Presolved: 256 rows, 480 columns, 960 nonzeros
Variable types: 240 continuous, 240 integer (240 binary)
Root relaxation presolve removed 241 rows and 240 columns
Root relaxation presolved: 15 rows, 240 columns, 450 nonzeros


Root relaxation: objective 2.769838e+03, 16 iterations, 0.00 seconds (0.00 work units)

    Nodes    |    Current Node    |     Objective Bounds      |     Work
 Expl Unexpl |  Obj  Depth IntInf | Incumbent    BestBd   Gap | It/Node Time

     0     0 2769.83800    0   14 16199.0000 2769.83800  82.9%     -    0s
H    0     0                    11359.000000 2769.83800  75.6%     -    0s
     0     0 8084.69631    0   26 11359.0000 8084.69631  28.8%     -    0s
H    0     0                    11077.000000 8084.69631  27.0%     -    0s
     0     0 8528.16906    0   24 11077.0000 8528.16906  23.0%     -    0s
H    0     0                    11036.000000 8539.15185  22.6%     -    0s
     0     0 8539.15185    0   34 11036.0000 8539.15185  22.6%     -    0s
     0     0 8548.03675    0   29 11036.0000 8548.03675  22.5%     -    0s
     0     0 8707.67202    0   35 11036.0000 8707.67202  21.1%     -    0s
H    0     0                    10923.000000 8707.67202  20.3%     -    0s
H    0     0                    10801.000000 8707.67202  19.4%     -    0s
     0     0 8756.82179    0   29 10801.0000 8756.82179  18.9%     -    0s
     0     0 8759.07726    0   27 10801.0000 8759.07726  18.9%     -    0s
     0     0 8844.99400    0   32 10801.0000 8844.99400  18.1%     -    0s
H    0     0                    10767.000000 8844.99400  17.9%     -    0s
     0     0 8861.05500    0   35 10767.0000 8861.05500  17.7%     -    0s
     0     0 8862.45262    0   36 10767.0000 8862.45262  17.7%     -    0s
     0     0 9025.16206    0   34 10767.0000 9025.16206  16.2%     -    0s
     0     0 9032.73091    0   38 10767.0000 9032.73091  16.1%     -    0s
     0     0 9067.49798    0   38 10767.0000 9067.49798  15.8%     -    0s
     0     0 9067.49798    0   38 10767.0000 9067.49798  15.8%     -    0s
     0     2 9070.63101    0   38 10767.0000 9070.63101  15.8%     -    0s
H   31    40                    10683.000000 9237.32169  13.5%  49.1    0s
H  129   142                    10678.000000 9237.32169  13.5%  26.7    0s
H  814   692                    10674.000000 9273.62398  13.1%  13.7    0s
 33323 13144 10442.2997   40   17 10674.0000 9982.55457  6.48%  24.1    5s
 69020 20063 10611.7747   34    5 10674.0000 10148.4615  4.92%  25.1   10s
 109012 22529 10591.4083   30   21 10674.0000 10280.9055  3.68%  25.7   15s
 143991 18184     cutoff   33      10674.0000 10390.4852  2.66%  25.8   20s
 180248  2058 10604.6914   34    8 10674.0000 10565.5640  1.02%  25.2   25s

Cutting planes:
  Gomory: 2
  Lift-and-project: 14
  Cover: 91
  Implied bound: 17
  MIR: 164
  Flow cover: 321
  Flow path: 43
  Inf proof: 2
  Zero half: 12
  Network: 59
  Relax-and-lift: 2

Explored 184189 nodes (4593342 simplex iterations) in 25.53 seconds (40.88 work units)
Thread count was 16 (of 16 available processors)

Solution count 10: 10674 10678 10683 ... 16199

Optimal solution found (tolerance 1.00e-04)
Best objective 1.067400000000e+04, best bound 1.067400000000e+04, gap 0.0000%
